Linux optc-09-04 4.15.0-58-generic #64-Ubuntu SMP Tue Aug 6 11:12:41 UTC 2019 x86_64 x86_64 x86_64 GNU/Linux

top - 20:31:22 up 1 day, 10:32,  0 users,  load average: 0,85, 0,97, 0,99
Tasks: 288 gesamt,   1 laufend, 149 schlafend,   0 gestoppt,   0 Zombie
%CPU(s):  7,5 be,  0,3 sy,  0,0 ni, 92,2 un,  0,0 wa,  0,0 hi,  0,0 si,  0,0 st
KiB Spch : 97514992 gesamt, 95359360 frei,   650988 belegt,  1504652 Puff/Cache
KiB Swap:  8388604 gesamt,  8388604 frei,        0 belegt. 96121568 verfü Spch 

  PID USER      PR  NI    VIRT    RES    SHR S  %CPU %MEM     ZEIT+ BEFEHL
    1 root      20   0  233832   9384   6696 S   0,0  0,0   0:11.39 systemd
    2 root      20   0       0      0      0 S   0,0  0,0   0:00.11 kthreadd
    3 root      20   0       0      0      0 I   0,0  0,0   0:02.03 kworker/0:0
    4 root       0 -20       0      0      0 I   0,0  0,0   0:00.00 kworker/0:+
    6 root      20   0       0      0      0 I   0,0  0,0   0:00.00 kworker/u3+
    7 root       0 -20       0      0      0 I   0,0  0,0   0:00.00 mm_percpu_+
    8 root      20   0       0      0      0 S   0,0  0,0   0:00.01 ksoftirqd/0
    9 root      20   0       0      0      0 I   0,0  0,0   0:08.14 rcu_sched

hard time limit: 04:10:00
hard mem limit: 55100

SLURM jobID: 2182504

@01 /nfs/optimi/kombadon/IP/miplib2003/dano3mip.mps.gz ===========
-----------------------------
Do 22. Aug 20:31:22 CEST 2019
-----------------------------
@03 1566498682
@05 7200
SCIP version 6.0.0 [precision: 8 byte] [memory: block] [mode: optimized] [LP solver: CPLEX 12.8.0.0] [GitHash: 41ab6e0014]
Copyright (C) 2002-2018 Konrad-Zuse-Zentrum fuer Informationstechnik Berlin (ZIB)

External codes: 
  Readline 7.0         GNU library for command line editing (gnu.org/s/readline)
  CPLEX 12.8.0.0       Linear Programming Solver developed by IBM (www.cplex.com)
  CppAD 20180000.0     Algorithmic Differentiation of C++ algorithms developed by B. Bell (www.coin-or.org/CppAD)
  ZLIB 1.2.11          General purpose compression library by J. Gailly and M. Adler (zlib.net)
  GMP 6.1.2            GNU Multiple Precision Arithmetic Library developed by T. Granlund (gmplib.org)
  bliss 0.73p          Computing Graph Automorphism Groups by T. Junttila and P. Kaski (http://www.tcs.hut.fi/Software/bliss/)

user parameter file <scip.set> not found - using default parameters

SCIP> 
SCIP> set load /home/optimi/bzfhende/opti/scip-opti/check/../settings/enable_treeeprofile.set
loaded parameter file </home/optimi/bzfhende/opti/scip-opti/check/../settings/enable_treeprofile.set>
SCIP> set misc referencevalue 6.8773333333e+02
misc/referencevalue = 687.73333333
SCIP> set limits time 7200
limits/time = 7200
SCIP> set limits nodes 2100000000
limits/nodes = 2100000000
SCIP> set limits memory 50000
limits/memory = 50000
SCIP> set lp advanced threads 1
lp/threads = 1
SCIP> set timing clocktype 1
timing/clocktype = 1
SCIP> set display freq 10000
display/freq = 10000
SCIP> set memory savefac 1.0
memory/savefac = 1
SCIP> set save /home/optimi/bzfhende/opti/scip-opti/check/treesize.estimation.jouurnal.3/bzfhende.MMMc.40_dano3mip.scip.M640.enable_treeprofile.set
saved parameter file </home/optimi/bzfhende/opti/scip-opti/check/treesize.estimation.journal.3/bzfhende.MMMc.40_dano3mip.scip.M640.enable_treeprofile.set>
SCIP> read /nfs/optimi/kombadon/IP/miplib2003/dano3mip.mps.gz

read problem </nfs/optimi/kombadon/IP/miplib2003/dano3mip.mps.gz>
============

original problem has 13873 variables (552 bin, 0 int, 0 impl, 13321 cont) and 3202 constraints
SCIP> display parameters

number of parameters = 2448
non-default parameter settings:
display/freq = 10000
limits/time = 7200
limits/nodes = 2100000000
limits/memory = 50000
lp/threads = 1
memory/savefac = 1
misc/referencevalue = 687.73333333
presolving/maxrestarts = 0
estimates/profile/enabled = TRUE
estimates/profile/maxdepthfactor = 10
estimates/profile/freq = 0

SCIP> optimize

Activating tree profile data collection
presolving:
(round 1, fast)       36 del vars, 36 del conss, 0 add conss, 1187 chg bounds, 0 chg sides, 0 chg coeffs, 0 upgd conss, 0 impls, 0 clqs
(round 2, fast)       36 del vars, 36 del conss, 0 add conss, 13841 chg bounds, 0 chg sides, 0 chg coeffs, 0 upgd conss, 0 impls, 0 clqs
(round 3, exhaustive) 36 del vars, 51 del conss, 0 add conss, 13842 chg bounds, 0 chg sides, 0 chg coeffs, 0 upgd conss, 0 impls, 0 clqs
(round 4, exhaustive) 36 del vars, 51 del conss, 0 add conss, 13842 chg bounds, 0 chg sides, 0 chg coeffs, 621 upgd conss, 0 impls, 0 clqs
   (0.2s) sparsify aborted: 552/79553 (0.7%) nonzeros canceled - in total 552 canceled nonzeros, 1080 changed coefficients, 0 added nonzeros
(round 5, exhaustive) 36 del vars, 51 del conss, 0 add conss, 13842 chg bounds, 0 chg sides, 1080 chg coeffs, 621 upgd conss, 621 impls, 0 clqs
   (0.8s) probing cycle finished: starting next cycle
presolving (6 rounds: 6 fast, 4 medium, 4 exhaustive):
 36 deleted vars, 51 deleted constraints, 0 added constraints, 13842 tightened bounds, 0 added holes, 0 changed sides, 1080 changed coefficients
 13838 implications, 0 cliques
presolved problem has 13837 variables (552 bin, 0 int, 0 impl, 13285 cont) and 3151 constraints
    621 constraints of type <varbound>
   2530 constraints of type <linear>
Presolving Time: 0.75

 time | node  | left  |LP iter|LP it/n| mem |mdpt |frac |vars |cons |cols |rows |cuts |confs|strbr|  dualbound   | primalbound  |  gap   
k 0.9s|     1 |     0 |  1562 |     - | 138M|   0 |   - |  13k|3151 |  13k|3151 |   0 |   0 |   0 | 2.885000e+02 | 9.378235e+02 | 225.07%
  5.5s|     1 |     0 | 22425 |     - | 138M|   0 | 124 |  13k|3151 |  13k|3151 |   0 |   0 |   0 | 5.762316e+02 | 9.378235e+02 |  62.75%
  5.5s|     1 |     0 | 22425 |     - | 138M|   0 | 124 |  13k|3151 |  13k|3151 |   0 |   0 |   0 | 5.762316e+02 | 9.378235e+02 |  62.75%
  6.7s|     1 |     0 | 23040 |     - | 141M|   0 | 128 |  13k|3151 |  13k|3159 |   8 |   0 |   0 | 5.762650e+02 | 9.378235e+02 |  62.74%
  7.9s|     1 |     0 | 23537 |     - | 143M|   0 | 135 |  13k|3151 |  13k|3174 |  23 |   0 |   0 | 5.763008e+02 | 9.378235e+02 |  62.73%
 15.2s|     1 |     0 | 46830 |     - | 144M|   0 | 141 |  13k|3151 |  13k|3190 |  39 |   0 |   0 | 5.763318e+02 | 9.378235e+02 |  62.72%
 16.6s|     1 |     0 | 47696 |     - | 146M|   0 | 148 |  13k|3151 |  13k|3213 |  62 |   0 |   0 | 5.764016e+02 | 9.378235e+02 |  62.70%
 18.0s|     1 |     0 | 48211 |     - | 147M|   0 | 151 |  13k|3151 |  13k|3241 |  90 |   0 |   0 | 5.764424e+02 | 9.378235e+02 |  62.69%
 19.5s|     1 |     0 | 48831 |     - | 149M|   0 | 159 |  13k|3151 |  13k|3267 | 116 |   0 |   0 | 5.764931e+02 | 9.378235e+02 |  62.68%
 21.0s|     1 |     0 | 49564 |     - | 150M|   0 | 167 |  13k|3151 |  13k|3299 | 148 |   0 |   0 | 5.765584e+02 | 9.378235e+02 |  62.66%
 22.5s|     1 |     0 | 50155 |     - | 152M|   0 | 161 |  13k|3151 |  13k|3327 | 176 |   0 |   0 | 5.765962e+02 | 9.378235e+02 |  62.65%
 24.1s|     1 |     0 | 50565 |     - | 154M|   0 | 168 |  13k|3151 |  13k|3350 | 199 |   0 |   0 | 5.766140e+02 | 9.378235e+02 |  62.64%
 25.6s|     1 |     0 | 50819 |     - | 157M|   0 | 177 |  13k|3151 |  13k|3368 | 217 |   0 |   0 | 5.766214e+02 | 9.378235e+02 |  62.64%
 27.4s|     1 |     0 | 51457 |     - | 157M|   0 | 183 |  13k|3151 |  13k|3384 | 233 |   0 |   0 | 5.766600e+02 | 9.378235e+02 |  62.63%
 28.9s|     1 |     0 | 51808 |     - | 159M|   0 | 178 |  13k|3151 |  13k|3405 | 254 |   0 |   0 | 5.766723e+02 | 9.378235e+02 |  62.63%
 time | node  | left  |LP iter|LP it/n| mem |mdpt |frac |vars |cons |cols |rows |cuts |confs|strbr|  dualbound   | primalbound  |  gap   
 30.6s|     1 |     0 | 52364 |     - | 161M|   0 | 184 |  13k|3151 |  13k|3428 | 277 |   0 |   0 | 5.767073e+02 | 9.378235e+02 |  62.62%
 32.2s|     1 |     0 | 52859 |     - | 164M|   0 | 189 |  13k|3151 |  13k|3449 | 298 |   0 |   0 | 5.767295e+02 | 9.378235e+02 |  62.61%
 34.0s|     1 |     0 | 53157 |     - | 168M|   0 | 181 |  13k|3151 |  13k|3472 | 321 |   0 |   0 | 5.767365e+02 | 9.378235e+02 |  62.61%
 36.5s|     1 |     0 | 53577 |     - | 169M|   0 | 189 |  13k|3151 |  13k|3475 | 340 |   0 |   0 | 5.767528e+02 | 9.378235e+02 |  62.60%
 38.4s|     1 |     0 | 53829 |     - | 170M|   0 | 194 |  13k|3151 |  13k|3491 | 356 |   0 |   0 | 5.767584e+02 | 9.378235e+02 |  62.60%
F44.8s|     1 |     0 | 66100 |     - | 171M|   0 |   0 |  13k|3151 |  13k|3491 | 356 |   0 |   0 | 5.767584e+02 | 7.484444e+02 |  29.77%
E 160s|     1 |     0 | 66100 |     - | 171M|   0 | 194 |  13k|3151 |  13k|3491 | 356 |   0 |   0 | 5.767584e+02 | 7.116000e+02 |  23.38%
  160s|     1 |     0 | 66100 |     - | 171M|   0 | 194 |  13k|3151 |  13k|3491 | 356 |   0 |   0 | 5.767584e+02 | 7.116000e+02 |  23.38%
  162s|     1 |     0 | 66703 |     - | 173M|   0 | 196 |  13k|3151 |  13k|3522 | 387 |   0 |   0 | 5.767871e+02 | 7.116000e+02 |  23.37%
  162s|     1 |     0 | 67093 |     - | 174M|   0 | 195 |  13k|3151 |  13k|3535 | 400 |   0 |   0 | 5.767998e+02 | 7.116000e+02 |  23.37%
  179s|     1 |     0 | 67093 |     - | 174M|   0 | 195 |  13k|3151 |  13k|3535 | 400 |   0 |  38 | 5.768656e+02 | 7.116000e+02 |  23.36%
  181s|     1 |     0 | 68197 |     - | 177M|   0 | 216 |  13k|3151 |  13k|3589 | 454 |   0 |  38 | 5.769168e+02 | 7.116000e+02 |  23.35%
  181s|     1 |     0 | 69073 |     - | 177M|   0 | 225 |  13k|3151 |  13k|3629 | 494 |   0 |  38 | 5.769852e+02 | 7.116000e+02 |  23.33%
  188s|     1 |     0 | 69073 |     - | 177M|   0 | 225 |  13k|3151 |  13k|3629 | 494 |   0 |  54 | 5.770376e+02 | 7.116000e+02 |  23.32%
  189s|     1 |     0 | 69618 |     - | 179M|   0 | 228 |  13k|3151 |  13k|3661 | 526 |   0 |  54 | 5.770376e+02 | 7.116000e+02 |  23.32%
 time | node  | left  |LP iter|LP it/n| mem |mdpt |frac |vars |cons |cols |rows |cuts |confs|strbr|  dualbound   | primalbound  |  gap   
  191s|     1 |     0 | 70205 |     - | 179M|   0 | 226 |  13k|3151 |  13k|3646 | 546 |   0 |  54 | 5.770376e+02 | 7.116000e+02 |  23.32%
SCIP nodes: 1 Estimation: -1
  202s|     1 |     2 | 70205 |     - | 179M|   0 | 226 |  13k|3151 |  13k|3646 | 546 |   0 |  73 | 5.770398e+02 | 7.116000e+02 |  23.32%
   (203.1s) symmetry computation started: requiring (bin +, int -, cont -), (fixed: bin -, int +, cont -)
   (203.1s) no symmetry present
SCIP nodes: 2 Estimation: -1
SCIP nodes: 4 Estimation: -1
SCIP nodes: 8 Estimation: -1
SCIP nodes: 16 Estimation: -1
SCIP nodes: 32 Estimation: -1
SCIP nodes: 64 Estimation: -1
SCIP nodes: 128 Estimation: -1
L 464s|   155 |   156 |468547 |2676.5 | 252M|  23 | 191 |  13k|3151 |  13k|3507 |1531 |   0 | 399 | 5.772571e+02 | 7.102566e+02 |  23.04%
SCIP nodes: 256 Estimation: -1
C 695s|   355 |   356 |868187 |2293.3 | 254M|  39 | 135 |  13k|3151 |  13k|3613 |2015 |   0 | 574 | 5.772571e+02 | 7.061852e+02 |  22.33%
SCIP nodes: 512 Estimation: 20255.8
SCIP nodes: 1024 Estimation: 20255.8
SCIP nodes: 2048 Estimation: 29789.8
SCIP nodes: 4096 Estimation: 64940
SCIP nodes: 8192 Estimation: 310003

SCIP Status        : solving was interrupted [time limit reached]
Solving Time (sec) : 7200.01
Solving Nodes      : 9556
Primal Bound       : +7.06185185185185e+02 (5 solutions)
Dual Bound         : +5.77584248057943e+02
Gap                : 22.27 %

SCIP> display statistics

SCIP Status        : solving was interrupted [time limit reached]
Total Time         :    7200.04
  solving          :    7200.01
  presolving       :       0.75 (included in solving)
  reading          :       0.03
  copying          :       0.34 (19 #copies) (minimal 0.01, maximal 0.02, average 0.02)
Original Problem   :
  Problem name     : dano3mip
  Variables        : 13873 (552 binary, 0 integer, 0 implicit integer, 13321 continuous)
  Constraints      : 3202 initial, 3202 maximal
  Objective        : minimize, 1 non-zeros (abs.min = 1, abs.max = 1)
Presolved Problem  :
  Problem name     : t_dano3mip
  Variables        : 13837 (552 binary, 0 integer, 0 implicit integer, 13285 continuous)
  Constraints      : 3151 initial, 3184 maximal
  Objective        : minimize, 1 non-zeros (abs.min = 1, abs.max = 1)
Presolvers         :   ExecTime  SetupTime  Calls  FixedVars   AggrVars   ChgTypes  ChgBounds   AddHoles    DelCons    AddCons   ChgSides   ChgCoefs
  boundshift       :       0.00       0.00      0          0          0          0          0          0          0          0          0          0
  convertinttobin  :       0.00       0.00      0          0          0          0          0          0          0          0          0          0
  domcol           :       0.00       0.00      2          0          0          0          0          0          0          0          0          0
  dualagg          :       0.00       0.00      0          0          0          0          0          0          0          0          0          0
  dualcomp         :       0.02       0.00      2          0          0          0          0          0          0          0          0          0
  dualinfer        :       0.00       0.00      0          0          0          0          0          0          0          0          0          0
  gateextraction   :       0.00       0.00      0          0          0          0          0          0          0          0          0          0
  implics          :       0.00       0.00      4          0          0          0          0          0          0          0          0          0
  inttobinary      :       0.00       0.00      0          0          0          0          0          0          0          0          0          0
  qpkktref         :       0.00       0.00      0          0          0          0          0          0          0          0          0          0
  redvub           :       0.00       0.00      0          0          0          0          0          0          0          0          0          0
  sparsify         :       0.30       0.00      2          0          0          0          0          0          0          0          0       1080
  stuffing         :       0.00       0.00      0          0          0          0          0          0          0          0          0          0
  symbreak         :       0.00       0.00      0          0          0          0          0          0          0          0          0          0
  symmetry         :       0.00       0.00      0          0          0          0          0          0          0          0          0          0
  trivial          :       0.00       0.00      6          0          0          0          0          0          0          0          0          0
  tworowbnd        :       0.00       0.00      0          0          0          0          0          0          0          0          0          0
  dualfix          :       0.00       0.00      6          0          0          0          0          0          0          0          0          0
  genvbounds       :       0.00       0.00      0          0          0          0          0          0          0          0          0          0
  orbitalfixing    :       0.00       0.00      0          0          0          0          0          0          0          0          0          0
  probing          :       0.34       0.01      1          0          0          0          0          0          0          0          0          0
  pseudoobj        :       0.00       0.00      0          0          0          0          0          0          0          0          0          0
  vbounds          :       0.00       0.00      0          0          0          0          0          0          0          0          0          0
  varbound         :       0.01       0.00      4          0          0          0          0          0          0          0          0          0
  linear           :       0.07       0.01     10          0         36          0      13842          0         51          0          0          0
  logicor          :       0.00       0.00      0          0          0          0          0          0          0          0          0          0
  benders          :       0.00       0.00      0          0          0          0          0          0          0          0          0          0
  components       :       0.00       0.00      1          0          0          0          0          0          0          0          0          0
  root node        :          -          -      -          0          -          -      26505          -          -          -          -          -
Constraints        :     Number  MaxNumber  #Separate #Propagate    #EnfoLP    #EnfoRelax  #EnfoPS    #Check   #ResProp    Cutoffs    DomReds       Cuts    Applied      Conss   Children
  benderslp        :          0          0          0          0       9612          0          0       2295          0          0          0          0          0          0          0
  integral         :          0          0          0          0       9612          0          0       2295          0          0        305          0          0          0      19110
  varbound         :        621        621         20     155677          0          0          0       2290         65          0      99059          0          0          0          0
  linear           :       2530+      2531         20     155860          0          0          0          7        307         15    2170176          0          0          0          0
  logicor          :          0+        32          0       1406          0          0          0          0          0          0          0          0          0          0          0
  benders          :          0          0          0          0          0          0          0          6          0          0          0          0          0          0          0
  countsols        :          0          0          0          0          0          0          0          6          0          0          0          0          0          0          0
  components       :          0          0          0          0          0          0          0          0          0          0          0          0          0          0          0
Constraint Timings :  TotalTime  SetupTime   Separate  Propagate     EnfoLP     EnfoPS     EnfoRelax   Check    ResProp    SB-Prop
  benderslp        :       0.02       0.00       0.00       0.00       0.02       0.00       0.00       0.00       0.00       0.00
  integral         :     609.24       0.00       0.00       0.00     609.24       0.00       0.00       0.00       0.00       0.00
  varbound         :       0.51       0.00       0.01       0.45       0.00       0.00       0.00       0.00       0.00       0.05
  linear           :      12.70       0.01       0.20      11.22       0.00       0.00       0.00       0.02       0.00       1.25
  logicor          :       0.00       0.00       0.00       0.00       0.00       0.00       0.00       0.00       0.00       0.00
  benders          :       0.00       0.00       0.00       0.00       0.00       0.00       0.00       0.00       0.00       0.00
  countsols        :       0.00       0.00       0.00       0.00       0.00       0.00       0.00       0.00       0.00       0.00
  components       :       0.02       0.00       0.00       0.02       0.00       0.00       0.00       0.00       0.00       0.00
Propagators        : #Propagate   #ResProp    Cutoffs    DomReds
  dualfix          :         12          0          0          0
  genvbounds       :          0          0          0          0
  nlobbt           :          0          0          0          0
  obbt             :          0          0          0          0
  orbitalfixing    :          1          0          0          0
  probing          :          0          0          0          0
  pseudoobj        :      32707          0          0          3
  redcost          :      22232          0          0          0
  rootredcost      :          3          0          0          0
  vbounds          :     163794          0          0          0
Propagator Timings :  TotalTime  SetupTime   Presolve  Propagate    ResProp    SB-Prop
  dualfix          :       0.00       0.00       0.00       0.00       0.00       0.00
  genvbounds       :       0.09       0.00       0.00       0.09       0.00       0.00
  nlobbt           :       0.00       0.00       0.00       0.00       0.00       0.00
  obbt             :       0.00       0.00       0.00       0.00       0.00       0.00
  orbitalfixing    :       0.09       0.00       0.00       0.08       0.00       0.01
  probing          :       0.35       0.01       0.34       0.00       0.00       0.00
  pseudoobj        :       0.11       0.00       0.00       0.11       0.00       0.00
  redcost          :       3.04       0.00       0.00       3.04       0.00       0.00
  rootredcost      :       0.14       0.00       0.00       0.14       0.00       0.00
  vbounds          :       0.10       0.00       0.00       0.08       0.00       0.02
Conflict Analysis  :       Time      Calls    Success    DomReds  Conflicts   Literals    Reconvs ReconvLits   Dualrays   Nonzeros   LP Iters   (pool size: [10000,10000])
  propagation      :       0.00          5          5          -         36       43.0          0        0.0          -          -          -
  infeasible LP    :       0.01          2          2          -         17       51.4          0        0.0          2     1004.5          0
  bound exceed. LP :      15.41        842          3          -          0        0.0          0        0.0          3     1260.3      14490
  strong branching :       0.00          0          0          -          0        0.0          0        0.0          -          -          0
  pseudo solution  :       0.00          0          0          -          0        0.0          0        0.0          -          -          -
  applied globally :       0.00          -          -          0         43       43.9          -          -          5          -          -
  applied locally  :          -          -          -          0          0        0.0          -          -          0          -          -
Separators         :   ExecTime  SetupTime      Calls    Cutoffs    DomReds       Cuts    Applied      Conss
  cut pool         :       7.75                  4126          -          -      84076          -          -    (maximal pool size: 11434)
  aggregation      :      98.02       0.00       1069          0          0          0          0          0
  cgmip            :       0.00       0.00          0          0          0          0          0          0
  clique           :       0.00       0.00          1          0          0          0          0          0
  closecuts        :       0.00       0.00          0          0          0          0          0          0
  cmir             :       0.00       0.00          0          0          0          0      32647          0
  convexproj       :       0.00       0.00          0          0          0          0          0          0
  disjunctive      :       0.00       0.00          0          0          0          0          0          0
  eccuts           :       0.00       0.00          0          0          0          0          0          0
  flowcover        :       0.00       0.00          0          0          0          0        557          0
  gauge            :       0.00       0.00          0          0          0          0          0          0
  gomory           :       7.37       0.00        896          0          0          0        821          0
  impliedbounds    :       0.70       0.00       1069          0          0          0         12          0
  intobj           :       0.00       0.00          0          0          0          0          0          0
  mcf              :       0.00       0.00          1          0          0          0          0          0
  oddcycle         :       0.00       0.00          0          0          0          0          0          0
  rapidlearning    :       0.00       0.00          0          0          0          0          0          0
  strongcg         :       0.15       0.00         20          0          0          0          0          0
  zerohalf         :       5.90       0.00        906          0          0          0          0          0
Pricers            :   ExecTime  SetupTime      Calls       Vars
  problem variables:       0.00          -          0          0
Branching Rules    :   ExecTime  SetupTime   BranchLP  BranchExt   BranchPS    Cutoffs    DomReds       Cuts      Conss   Children
  allfullstrong    :       0.00       0.00          0          0          0          0          0          0          0          0
  cloud            :       0.00       0.00          0          0          0          0          0          0          0          0
  distribution     :       0.00       0.00          0          0          0          0          0          0          0          0
  fullstrong       :       0.00       0.00          0          0          0          0          0          0          0          0
  inference        :       0.00       0.00          0          0          0          0          0          0          0          0
  leastinf         :       0.00       0.00          0          0          0          0          0          0          0          0
  lookahead        :       0.00       0.00          0          0          0          0          0          0          0          0
  mostinf          :       0.00       0.00          0          0          0          0          0          0          0          0
  multaggr         :       0.00       0.00          0          0          0          0          0          0          0          0
  nodereopt        :       0.00       0.00          0          0          0          0          0          0          0          0
  pscost           :       0.00       0.00          0          0          0          0          0          0          0          0
  random           :       0.00       0.00          0          0          0          0          0          0          0          0
  relpscost        :     609.21       0.00       9612          0          0          0        305          0          0      19110
Primal Heuristics  :   ExecTime  SetupTime      Calls      Found       Best
  LP solutions     :       0.00          -          -          0          0
  relax solutions  :       0.00          -          -          0          0
  pseudo solutions :       0.00          -          -          0          0
  strong branching :       0.01          -          -          0          0
  actconsdiving    :       0.00       0.00          0          0          0
  alns             :       8.90       0.00          6          1          1
  bound            :       0.00       0.00          0          0          0
  clique           :       0.00       0.00          0          0          0
  coefdiving       :     125.61       0.00         61          0          0
  completesol      :       0.00       0.00          0          0          0
  conflictdiving   :       0.00       0.00          0          0          0
  crossover        :      47.48       0.00          5          1          1
  dins             :       0.00       0.00          0          0          0
  distributiondivin:     143.85       0.00         47          0          0
  dualval          :       0.00       0.00          0          0          0
  farkasdiving     :       0.00       0.00          0          0          0
  feaspump         :     205.64       0.00         29          1          1
  fixandinfer      :       0.00       0.00          0          0          0
  fracdiving       :     134.24       0.00         64          0          0
  gins             :       0.05       0.00          0          0          0
  guideddiving     :     134.61       0.00         66          0          0
  indicator        :       0.03       0.00          0          0          0
  intdiving        :       0.00       0.00          0          0          0
  intshifting      :       3.00       0.00         31          0          0
  linesearchdiving :     126.65       0.00         58          0          0
  localbranching   :       0.00       0.00          0          0          0
  locks            :       0.12       0.00          1          1          1
  lpface           :       0.03       0.00          0          0          0
  mpec             :       0.00       0.00          0          0          0
  multistart       :       0.00       0.00          0          0          0
  mutation         :       0.00       0.00          0          0          0
  nlpdiving        :       0.00       0.00          0          0          0
  objpscostdiving  :     162.19       0.00         21          0          0
  octane           :       0.00       0.00          0          0          0
  ofins            :       0.01       0.00          0          0          0
  oneopt           :       0.02       0.00          4          0          0
  proximity        :       0.00       0.00          0          0          0
  pscostdiving     :     154.80       0.00         58          0          0
  randrounding     :       0.61       0.00       2282          0          0
  rens             :     115.16       0.00          1          1          1
  reoptsols        :       0.00       0.00          0          0          0
  repair           :       0.00       0.00          0          0          0
  rins             :     129.46       0.00          7          0          0
  rootsoldiving    :      69.98       0.00          7          0          0
  rounding         :       0.18       0.00       1519          0          0
  shiftandpropagate:       0.00       0.00          0          0          0
  shifting         :       0.99       0.00        919          0          0
  simplerounding   :       0.03       0.00          0          0          0
  subnlp           :       0.00       0.00          0          0          0
  trivial          :       0.00       0.00          2          0          0
  trivialnegation  :       0.00       0.00          0          0          0
  trysol           :       0.00       0.00          0          0          0
  twoopt           :       0.00       0.00          0          0          0
  undercover       :       0.00       0.00          0          0          0
  vbounds          :       0.00       0.00          0          0          0
  veclendiving     :     120.17       0.00         58          0          0
  zeroobj          :       0.00       0.00          0          0          0
  zirounding       :       0.06       0.00       1000          0          0
  other solutions  :          -          -          -          0          -
Diving Statistics  :      Calls      Nodes   LP Iters Backtracks  Conflicts   MinDepth   MaxDepth   AvgDepth  RoundSols  NLeafSols  MinSolDpt  MaxSolDpt  AvgSolDpt
  actconsdiving    :          0          -          -          -          -          -          -          -          -          -          -          -          -
  coefdiving       :         61       1703     605797        145          1         35         68       57.9          0          -          -          -          -
  conflictdiving   :          0          -          -          -          -          -          -          -          -          -          -          -          -
  distributiondivin:         47       4718     642663         42          2         48        273      133.2          0          -          -          -          -
  farkasdiving     :          0          -          -          -          -          -          -          -          -          -          -          -          -
  fracdiving       :         64      11040     602664         43         22         55        367      201.9          0          -          -          -          -
  guideddiving     :         66      14914     600067         43         10         59        402      254.6          0          -          -          -          -
  linesearchdiving :         58       3349     613709         80         18         51        179       88.3          0          -          -          -          -
  pscostdiving     :         58      12909     620333         35          5        139        381      252.1          0          -          -          -          -
  veclendiving     :         58       1579     611154        122          0         43         68       57.5          0          -          -          -          -
Neighborhoods      :      Calls  SetupTime  SolveTime SolveNodes       Sols       Best       Exp3  EpsGreedy        UCB TgtFixRate  Opt  Inf Node Stal  Sol  Usr Othr Actv
  rens             :          0       0.00       0.00          0          0          0    0.00000   -1.00000    1.00000      0.900    0    0    0    0    0    0    0    1
  rins             :          1       0.03       1.87         50          0          0    0.00000   -1.00000    1.00000      0.900    0    0    0    1    0    0    0    1
  mutation         :          1       0.04       0.13          1          0          0    0.00000   -1.00000    1.00000      0.700    0    1    0    0    0    0    0    1
  localbranching   :          1       0.04       0.11          1          0          0    0.00000   -1.00000    1.00000      0.700    0    1    0    0    0    0    0    1
  crossover        :          1       0.05       2.96         50          0          0    0.00000   -1.00000    1.00000      0.900    0    0    0    1    0    0    0    1
  proximity        :          1       0.04       3.40         88          0          0    0.00000   -1.00000    1.00000      0.900    0    0    0    1    0    0    0    1
  zeroobjective    :          1       0.04       0.10          1          1          1    0.00000   -1.00000    1.00000      0.700    1    0    0    0    0    0    0    1
  dins             :          0       0.00       0.00          0          0          0    0.00000   -1.00000    1.00000      0.900    0    0    0    0    0    0    0    1
LP                 :       Time      Calls Iterations  Iter/call   Iter/sec  Time-0-It Calls-0-It    ItLimit
  primal LP        :    1037.03       1483          0       0.00       0.00    1037.03       1483
  dual LP          :    3719.83      12621   10407357     828.41    2797.80       0.20         58
  lex dual LP      :       0.00          0          0       0.00          -
  barrier LP       :       0.00          0          0       0.00          -       0.00          0
  resolve instable :       0.00          0          0       0.00          -
  diving/probing LP:    1351.95       3807    5589890    1468.32    4134.69
  strong branching :     601.16       2656    1714288     645.44    2851.63          -          -       2890
    (at root node) :          -         73      63916     875.56          -
  conflict analysis:       4.66       1449      14490      10.00    3109.44
B&B Tree           :
  number of runs   :          1
  nodes            :       9556 (9555 internal, 1 leaves)
  feasible leaves  :          0
  infeas. leaves   :          0
  objective leaves :          0
  nodes (total)    :       9556 (9555 internal, 1 leaves)
  nodes left       :       9556
  max depth        :         48
  max depth (total):         48
  backtracks       :        633 (6.6%)
  early backtracks :        633 (100.0%)
  nodes exc. ref.  :          0 (0.0%)
  delayed cutoffs  :          0
  repropagations   :          0 (0 domain reductions, 0 cutoffs)
  avg switch length:       3.47
  switching time   :    1038.78
Root Node          :
  First LP value   : +5.76231620274569e+02
  First LP Iters   :      20863 (4545.32 Iter/sec)
  First LP Time    :       4.59
  Final Dual Bound : +5.77039771805120e+02
  Final Root Iters :      56372
  Root LP Estimate : +6.11172549558888e+02
Solution           :
  Solutions found  :          5 (5 improvements)
  First Solution   : +9.37823529411765e+02   (in run 1, after 1 nodes, 0.88 seconds, depth 46, found by <locks>)
  Gap First Sol.   :     225.07 %
  Gap Last Sol.    :      22.33 %
  Primal Bound     : +7.06185185185185e+02   (in run 1, after 355 nodes, 694.73 seconds, depth 32, found by <crossover>)
  Dual Bound       : +5.77584248057943e+02
  Gap              :      22.27 %
  Avg. Gap         :      18.50 % (133186.65 primal-dual integral)
  Tree Data        : 19111 nodes (9555 visited, 9555 inner, 0 leaves, 9556 open), progress: 0.0000
Tree Estimation    :       estim       value       trend  resolution      smooth
  wbe              :          -1           -           -           -           -
  tree profile     :       65632           -           -           -           -
  gap              :          -1     0.00000 999999999999999967336168804116691273849533185806555472917961779471295845921727862608739868455469056.00000           1 999999999999999967336168804116691273849533185806555472917961779471295845921727862608739868455469056
  progress         :          -1     0.00000 999999999999999967336168804116691273849533185806555472917961779471295845921727862608739868455469056.00000           1 999999999999999967336168804116691273849533185806555472917961779471295845921727862608739868455469056
  leaf-frequency   :          -1    -0.50000 999999999999999967336168804116691273849533185806555472917961779471295845921727862608739868455469056.00000           1 999999999999999967336168804116691273849533185806555472917961779471295845921727862608739868455469056
  ssg              :          -1     1.00000 999999999999999967336168804116691273849533185806555472917961779471295845921727862608739868455469056.00000           1 999999999999999967336168804116691273849533185806555472917961779471295845921727862608739868455469056
  open-nodes       :          -1     0.00000 999999999999999967336168804116691273849533185806555472917961779471295845921727862608739868455469056.00000           1 999999999999999967336168804116691273849533185806555472917961779471295845921727862608739868455469056

@04 1566505890
-----------------------------
Do 22. Aug 22:31:30 CEST 2019
-----------------------------

=ready=
